POSCAR file written by Ovito Basic 3.0.0
1.0
       12.9083938599         0.0000000000         0.0000000000
        0.0000000000         4.9691152573         0.0000000000
       -0.0045591952         0.0000000000        18.2705301318
   Ni   Sc   Cr   Cu
  105    1    1    1
Direct
     0.999690592         0.000000000         0.999721885
     0.166343585         0.249995306         0.999729455
     0.055259656         0.249988541         0.110831186
     0.221932098         0.000000000         0.110779986
     0.110882677         0.000000000         0.221930549
     0.277493536         0.250045508         0.221861422
     0.999777436         0.000000000         0.333036423
     0.166431084         0.250028908         0.333039403
     0.055306308         0.250039190         0.444160104
     0.221963823         0.000000000         0.444153041
     0.110806234         0.000000000         0.555273473
     0.277481169         0.249960601         0.555278897
     0.999693155         0.000000000         0.666412711
     0.166391909         0.249978840         0.666409969
     0.055243142         0.249991134         0.777525842
     0.221937880         0.000000000         0.777505755
     0.110796727         0.000000000         0.888618767
     0.277439088         0.250005186         0.888628066
     0.999667227         0.499999970         0.999737561
     0.166343585         0.750004649         0.999729455
     0.055259656         0.750011444         0.110831186
     0.221918106         0.499999970         0.110786229
     0.110841736         0.499999970         0.221933931
     0.277493536         0.749954462         0.221861392
     0.999749899         0.499999970         0.333045602
     0.166431084         0.749971032         0.333039373
     0.055306319         0.749960780         0.444160074
     0.221998110         0.500000000         0.444183558
     0.110874638         0.500000000         0.555275679
     0.277481198         0.750039339         0.555278897
     0.999769151         0.500000000         0.666414320
     0.166391894         0.750021100         0.666410029
     0.055243146         0.750008821         0.777525902
     0.221900731         0.499999970         0.777541101
     0.110754281         0.499999970         0.888665617
     0.277439088         0.749994755         0.888628066
     0.333021343         0.000000000         0.999714613
     0.499655157         0.250017554         0.999734640
     0.388596863         0.250018120         0.110814244
     0.555255830         0.000000000         0.110827602
     0.444193721         0.000000000         0.221903220
     0.610864043         0.250005633         0.221927047
     0.333059520         0.000000000         0.332952082
     0.499763370         0.249982506         0.333040535
     0.388611108         0.249953330         0.444126040
     0.555311084         0.000000000         0.444182783
     0.333081812         0.000000000         0.666383505
     0.499777436         0.249954358         0.666441441
     0.388591111         0.249982551         0.777518034
     0.555284858         0.000000000         0.777592182
     0.444113910         0.000000000         0.888639390
     0.610806227         0.250043064         0.888679683
     0.333023161         0.499999970         0.999710679
     0.499655157         0.749982417         0.999734640
     0.388596863         0.749981821         0.110814236
     0.555255234         0.499999970         0.110833265
     0.444182545         0.499999970         0.221947730
     0.610864043         0.749994338         0.221927047
     0.333072037         0.500000000         0.333017558
     0.499763370         0.750017464         0.333040565
     0.388611108         0.750046670         0.444126070
     0.555327594         0.500000000         0.444157869
     0.333066612         0.499999970         0.666410804
     0.499777406         0.750045598         0.666441500
     0.388591111         0.750017405         0.777518034
     0.555273950         0.499999970         0.777537584
     0.444119722         0.499999970         0.888598263
     0.610806227         0.749956906         0.888679624
     0.666321516         0.000000000         0.999755979
     0.833004653         0.249987975         0.999709666
     0.721919835         0.249993250         0.110814519
     0.888577640         0.000000000         0.110819228
     0.777502716         0.000000000         0.221941113
     0.944197595         0.249981508         0.221928418
     0.666417778         0.000000000         0.333055019
     0.833102167         0.249991104         0.333039403
     0.721983910         0.249980748         0.444158822
     0.888674855         0.000000000         0.444170237
     0.777587771         0.000000000         0.555277646
     0.944198906         0.250079572         0.555283129
     0.666433394         0.000000000         0.666427314
     0.833071232         0.250042230         0.666400194
     0.721926808         0.250030041         0.777516127
     0.888560891         0.000000000         0.777507842
     0.777424932         0.000000000         0.888619721
     0.944100916         0.249980658         0.888612926
     0.666335106         0.500000000         0.999754786
     0.833004653         0.750011981         0.999709666
     0.721919835         0.750006735         0.110814519
     0.888602257         0.499999970         0.110803016
     0.777547479         0.500000000         0.221896306
     0.944197595         0.750018477         0.221928433
     0.666452289         0.499999970         0.333019853
     0.833102167         0.750008881         0.333039403
     0.721983910         0.750019193         0.444158822
     0.888599575         0.499999970         0.444168538
     0.777521789         0.499999970         0.555274367
     0.944198906         0.749920428         0.555283070
     0.666394770         0.499999970         0.666396260
     0.833071232         0.749957740         0.666400135
     0.721926808         0.749969959         0.777516067
     0.888589025         0.500000000         0.777499080
     0.777465522         0.499999970         0.888617694
     0.944100916         0.750019312         0.888612926
     0.610928655         0.750042260         0.555291235
     0.444205850         0.499999970         0.555284202
     0.444205552         0.000000000         0.555283427
     0.610928655         0.249957725         0.555291176
